Gurobi Optimizer version 9.0.1 build v9.0.1rc0 (linux64)
Optimize a model with 352013 rows, 671861 columns and 1841028 nonzeros
Model fingerprint: 0x6e2230d0
Coefficient statistics:
  Matrix range     [1e-02, 8e+00]
  Objective range  [4e-04, 4e-04]
  Bounds range     [0e+00, 0e+00]
  RHS range        [1e+00, 1e+03]
Presolve removed 246174 rows and 372510 columns (presolve time = 5s) ...
Presolve removed 246174 rows and 372510 columns
Presolve time: 6.71s
Presolved: 105839 rows, 299351 columns, 1161796 nonzeros
Ordering time: 0.39s

Barrier statistics:
 AA' NZ     : 1.066e+06
 Factor NZ  : 2.996e+06 (roughly 200 MBytes of memory)
 Factor Ops : 1.429e+08 (less than 1 second per iteration)
 Threads    : 1

                  Objective                Residual
Iter       Primal          Dual         Primal    Dual     Compl     Time
   0  -1.16205646e+03  0.00000000e+00  2.71e+04 5.95e-03  4.96e+01     8s
   1  -1.60040929e+03 -1.01899229e+05  1.81e+04 6.67e-02  3.37e+01     9s
   2  -2.15824404e+03 -1.50227366e+05  1.50e+04 5.72e-02  2.78e+01     9s
   3  -2.59474644e+03 -2.13770575e+05  1.39e+04 4.56e-02  2.41e+01    10s
   4  -3.68778362e+03 -2.69865019e+05  9.68e+03 3.59e-02  1.76e+01    10s
   5  -3.89852234e+03 -3.15388453e+05  8.09e+03 2.82e-02  1.43e+01    10s
   6  -3.82677755e+03 -3.67478378e+05  6.37e+03 1.95e-02  1.07e+01    11s
   7  -3.29780448e+03 -3.97455118e+05  4.37e+03 1.16e-02  7.03e+00    11s
   8  -2.05385529e+03 -3.54005317e+05  1.90e+03 5.99e-03  3.47e+00    12s
   9  -1.09988338e+03 -1.94603192e+05  5.35e+02 1.07e-03  9.94e-01    12s
  10  -9.56129301e+02 -3.96507770e+04  1.51e+01 1.24e-04  1.47e-01    13s
  11  -1.23153105e+03 -2.82266351e+04  1.52e-01 8.39e-05  1.01e-01    13s
  12  -1.45075873e+03 -2.23156506e+04  8.98e-02 6.32e-05  7.81e-02    13s
  13  -1.66182561e+03 -1.57323378e+04  6.57e-02 4.26e-05  5.23e-02    13s
  14  -2.15248903e+03 -1.40270791e+04  4.20e-02 3.31e-05  4.40e-02    14s
  15  -2.33985326e+03 -1.26603320e+04  3.84e-02 2.71e-05  3.81e-02    14s
  16  -3.06754128e+03 -1.13273958e+04  2.76e-02 2.58e-05  3.05e-02    14s
  17  -3.43904254e+03 -9.86546094e+03  2.34e-02 1.98e-05  2.37e-02    15s
  18  -3.58884231e+03 -9.24833717e+03  2.19e-02 1.70e-05  2.08e-02    15s
  19  -4.00146502e+03 -8.47667141e+03  1.81e-02 1.33e-05  1.65e-02    16s
  20  -4.21521241e+03 -8.33513899e+03  1.65e-02 1.25e-05  1.52e-02    16s
  21  -4.57840036e+03 -8.18685456e+03  1.39e-02 1.15e-05  1.34e-02    17s
  22  -4.95122270e+03 -8.00105502e+03  1.18e-02 1.02e-05  1.15e-02    17s
  23  -5.12548716e+03 -7.94773477e+03  1.08e-02 9.71e-06  1.07e-02    17s
  24  -5.55598727e+03 -7.65424325e+03  8.51e-03 6.62e-06  7.86e-03    18s
  25  -5.88729626e+03 -7.57770805e+03  6.93e-03 5.32e-06  6.35e-03    18s
  26  -6.03220564e+03 -7.56202915e+03  6.28e-03 4.93e-06  5.77e-03    19s
  27  -6.40980969e+03 -7.54113134e+03  4.59e-03 3.91e-06  4.32e-03    19s
  28  -6.72962773e+03 -7.53249995e+03  3.18e-03 3.47e-06  3.18e-03    19s
  29  -6.89172864e+03 -7.52877593e+03  2.49e-03 3.09e-06  2.58e-03    20s
  30  -7.04518621e+03 -7.52700668e+03  1.87e-03 2.77e-06  2.02e-03    20s
  31  -7.16087223e+03 -7.52654604e+03  1.40e-03 2.55e-06  1.61e-03    21s
  32  -7.27830216e+03 -7.52798678e+03  9.36e-04 1.39e-06  1.04e-03    21s
  33  -7.36984912e+03 -7.53053049e+03  5.94e-04 1.09e-06  7.03e-04    21s
  34  -7.40451801e+03 -7.53189408e+03  4.63e-04 9.55e-07  5.72e-04    22s
  35  -7.46655559e+03 -7.53647674e+03  2.49e-04 5.12e-07  3.12e-04    22s
  36  -7.50155231e+03 -7.54110968e+03  1.27e-04 2.19e-07  1.65e-04    23s
  37  -7.51700992e+03 -7.54244298e+03  7.97e-05 1.41e-07  1.06e-04    23s
  38  -7.52720105e+03 -7.54292540e+03  4.90e-05 1.12e-07  6.98e-05    23s
  39  -7.53470394e+03 -7.54367383e+03  2.63e-05 6.69e-08  4.03e-05    24s
  40  -7.53920812e+03 -7.54411943e+03  1.35e-05 4.04e-08  2.27e-05    24s
  41  -7.54201229e+03 -7.54435907e+03  6.16e-06 2.70e-08  1.21e-05    24s
  42  -7.54410084e+03 -7.54465235e+03  2.35e-06 1.06e-08  3.53e-06    25s
  43  -7.54464769e+03 -7.54481827e+03  6.69e-07 8.96e-10  6.94e-07    25s
  44  -7.54482680e+03 -7.54482807e+03  1.22e-07 2.74e-10  2.80e-08    25s
  45  -7.54482927e+03 -7.54482973e+03  2.39e-08 1.25e-10  4.46e-09    26s
  46  -7.54482989e+03 -7.54482993e+03  3.78e-09 1.67e-10  4.60e-10    26s

Barrier solved model in 46 iterations and 26.08 seconds
Optimal objective -7.54482989e+03

Solver name: Gurobi
Solve time: 26.565149118
Termination status: OPTIMAL
Result count: 1
Primal status: FEASIBLE_POINT
Dual status: FEASIBLE_POINT
